(synth-fun lemma ((x Int) (y Int) (k Int) (nil Int)) Bool
           ((Start Bool) (I Int) (Loc Int))

           ((Start Bool (false
                  (=> Start Start)
                  (<= I I)
                  (= I I)
                  (not (= Loc nil))
                  (member x (hbst x))
                  (member x (hbst y))
                  (member y (hbst x))
                  (member y (hbst y))
                  (bst Loc)))
           (I Int (k
                  (minr Loc)
                  (maxr Loc)))
           (Loc Int (x y)))
)

(synth-fun rswitch () Int
           ((Start Int))
           ((Start Int (0)))
)
